RLW05
Position Depot: Center
Horizon for Depot: Large
Position of customers: Random
Distribution of the demand: Small
Width of time windows: Wide
Distribution of the service: Small

VEHICLE 
NUMBER 	 CAPACITY 
 9 	 	 83 
 
CUSTOMER
CUST NO. 	 XCOORD.  	 YCOORD. 	 DEMAND 	 READY TIME 	 DUE DATE 	 SERVICE TIME 
 0 	 	 500 	 	 500 	 	 0 	 	 0 	 	 3999 	 	 0 
  1 	 	 519 	 	 956 	 	 7 	 	 3285 	 	 3742 	 	 90 
  2 	 	 829 	 	 681 	 	 7 	 	 1270 	 	 1531 	 	 61 
  3 	 	 971 	 	 384 	 	 5 	 	 955 	 	 1262 	 	 53 
  4 	 	 252 	 	 857 	 	 7 	 	 1095 	 	 1583 	 	 75 
  5 	 	 250 	 	 368 	 	 5 	 	 775 	 	 1123 	 	 94 
  6 	 	 582 	 	 6 	 	 6 	 	 281 	 	 550 	 	 64 
  7 	 	 377 	 	 518 	 	 7 	 	 434 	 	 717 	 	 64 
  8 	 	 77 	 	 318 	 	 9 	 	 1861 	 	 2321 	 	 84 
  9 	 	 614 	 	 925 	 	 9 	 	 3021 	 	 3442 	 	 78 
  10 	 	 594 	 	 524 	 	 8 	 	 518 	 	 980 	 	 72 
  11 	 	 200 	 	 443 	 	 5 	 	 981 	 	 1286 	 	 64 
  12 	 	 781 	 	 145 	 	 6 	 	 3011 	 	 3317 	 	 51 
  13 	 	 167 	 	 497 	 	 7 	 	 640 	 	 865 	 	 100 
  14 	 	 368 	 	 84 	 	 9 	 	 818 	 	 1126 	 	 55 
  15 	 	 451 	 	 659 	 	 10 	 	 616 	 	 991 	 	 60 
  16 	 	 588 	 	 707 	 	 10 	 	 2790 	 	 2999 	 	 63 
  17 	 	 323 	 	 911 	 	 8 	 	 2152 	 	 2370 	 	 53 
  18 	 	 873 	 	 375 	 	 8 	 	 2101 	 	 2479 	 	 58 
  19 	 	 499 	 	 69 	 	 9 	 	 1060 	 	 1550 	 	 92 
  20 	 	 319 	 	 619 	 	 7 	 	 3400 	 	 3893 	 	 55 
  21 	 	 492 	 	 346 	 	 8 	 	 3367 	 	 3603 	 	 66 
  22 	 	 64 	 	 674 	 	 10 	 	 3336 	 	 3701 	 	 51 
  23 	 	 184 	 	 930 	 	 7 	 	 744 	 	 1104 	 	 66 
  24 	 	 854 	 	 837 	 	 7 	 	 3382 	 	 3738 	 	 81 
  25 	 	 425 	 	 973 	 	 5 	 	 1064 	 	 1347 	 	 90 
  26 	 	 297 	 	 49 	 	 5 	 	 1557 	 	 1977 	 	 89 
  27 	 	 222 	 	 284 	 	 7 	 	 2901 	 	 3390 	 	 81 
  28 	 	 589 	 	 288 	 	 9 	 	 904 	 	 1192 	 	 70 
  29 	 	 146 	 	 360 	 	 5 	 	 1435 	 	 1817 	 	 83 
  30 	 	 762 	 	 580 	 	 10 	 	 3430 	 	 3728 	 	 75 
  31 	 	 460 	 	 153 	 	 8 	 	 3675 	 	 3999 	 	 52 
  32 	 	 747 	 	 655 	 	 6 	 	 205 	 	 441 	 	 52 
  33 	 	 531 	 	 519 	 	 8 	 	 2110 	 	 2557 	 	 94 
  34 	 	 335 	 	 939 	 	 9 	 	 3112 	 	 3399 	 	 86 
  35 	 	 725 	 	 509 	 	 8 	 	 -145 	 	 252 	 	 85 
  36 	 	 741 	 	 575 	 	 10 	 	 1703 	 	 1987 	 	 87 
  37 	 	 602 	 	 382 	 	 5 	 	 3249 	 	 3637 	 	 72 
  38 	 	 448 	 	 243 	 	 10 	 	 2401 	 	 2880 	 	 69 
  39 	 	 871 	 	 90 	 	 8 	 	 2913 	 	 3295 	 	 62 
  40 	 	 165 	 	 137 	 	 8 	 	 3699 	 	 3922 	 	 73 
  41 	 	 580 	 	 345 	 	 6 	 	 2103 	 	 2554 	 	 80 
  42 	 	 8 	 	 589 	 	 6 	 	 3507 	 	 3737 	 	 78 
  43 	 	 670 	 	 167 	 	 9 	 	 651 	 	 1055 	 	 79 
  44 	 	 126 	 	 322 	 	 7 	 	 423 	 	 709 	 	 71 
  45 	 	 134 	 	 184 	 	 10 	 	 2292 	 	 2763 	 	 69 
  46 	 	 239 	 	 567 	 	 10 	 	 1530 	 	 1969 	 	 79 
  47 	 	 522 	 	 565 	 	 7 	 	 462 	 	 928 	 	 89 
  48 	 	 519 	 	 978 	 	 7 	 	 2271 	 	 2576 	 	 68 
  49 	 	 689 	 	 158 	 	 10 	 	 55 	 	 429 	 	 57 
  50 	 	 435 	 	 389 	 	 10 	 	 2450 	 	 2912 	 	 97 
  51 	 	 183 	 	 632 	 	 8 	 	 1603 	 	 2076 	 	 78 
  52 	 	 372 	 	 855 	 	 6 	 	 172 	 	 415 	 	 96 
  53 	 	 109 	 	 99 	 	 9 	 	 1452 	 	 1722 	 	 78 
  54 	 	 406 	 	 186 	 	 8 	 	 1604 	 	 2071 	 	 87 
  55 	 	 37 	 	 601 	 	 6 	 	 3569 	 	 3999 	 	 81 
  56 	 	 399 	 	 297 	 	 7 	 	 3033 	 	 3321 	 	 88 
  57 	 	 279 	 	 184 	 	 5 	 	 2163 	 	 2394 	 	 92 
  58 	 	 66 	 	 998 	 	 9 	 	 727 	 	 1155 	 	 70 
  59 	 	 452 	 	 343 	 	 10 	 	 217 	 	 615 	 	 53 
  60 	 	 765 	 	 479 	 	 7 	 	 3590 	 	 3999 	 	 79 
  61 	 	 339 	 	 519 	 	 5 	 	 469 	 	 874 	 	 84 
  62 	 	 886 	 	 437 	 	 9 	 	 2812 	 	 3256 	 	 82 
  63 	 	 152 	 	 327 	 	 6 	 	 1298 	 	 1568 	 	 89 
  64 	 	 198 	 	 230 	 	 6 	 	 3417 	 	 3849 	 	 91 
  65 	 	 898 	 	 159 	 	 5 	 	 2737 	 	 2989 	 	 77 
  66 	 	 53 	 	 464 	 	 6 	 	 1291 	 	 1777 	 	 70 
  67 	 	 960 	 	 286 	 	 8 	 	 160 	 	 558 	 	 81 
  68 	 	 733 	 	 456 	 	 7 	 	 2856 	 	 3211 	 	 91 
  69 	 	 595 	 	 396 	 	 7 	 	 3304 	 	 3652 	 	 61 
  70 	 	 102 	 	 501 	 	 6 	 	 1686 	 	 1964 	 	 79 
  71 	 	 108 	 	 551 	 	 5 	 	 2014 	 	 2377 	 	 70 
  72 	 	 843 	 	 506 	 	 10 	 	 2102 	 	 2476 	 	 96 
  73 	 	 595 	 	 327 	 	 9 	 	 2208 	 	 2644 	 	 70 
  74 	 	 496 	 	 707 	 	 8 	 	 3137 	 	 3611 	 	 63 
  75 	 	 170 	 	 246 	 	 9 	 	 656 	 	 981 	 	 53 
  76 	 	 799 	 	 328 	 	 9 	 	 2995 	 	 3226 	 	 71 
  77 	 	 429 	 	 965 	 	 5 	 	 1218 	 	 1602 	 	 73 
  78 	 	 614 	 	 609 	 	 10 	 	 3370 	 	 3779 	 	 63 
  79 	 	 805 	 	 923 	 	 7 	 	 3558 	 	 3872 	 	 70 
  80 	 	 406 	 	 715 	 	 8 	 	 2598 	 	 2887 	 	 50 
  81 	 	 398 	 	 666 	 	 7 	 	 2317 	 	 2630 	 	 64 
  82 	 	 67 	 	 842 	 	 9 	 	 1113 	 	 1509 	 	 63 
  83 	 	 727 	 	 892 	 	 7 	 	 181 	 	 603 	 	 50 
  84 	 	 827 	 	 359 	 	 5 	 	 3107 	 	 3515 	 	 59 
  85 	 	 114 	 	 546 	 	 10 	 	 3204 	 	 3495 	 	 98 
  86 	 	 348 	 	 147 	 	 8 	 	 1606 	 	 1972 	 	 84 
  87 	 	 892 	 	 653 	 	 10 	 	 1970 	 	 2311 	 	 63 
  88 	 	 198 	 	 162 	 	 6 	 	 3524 	 	 3999 	 	 60 
  89 	 	 987 	 	 991 	 	 6 	 	 334 	 	 760 	 	 87 
  90 	 	 534 	 	 133 	 	 8 	 	 363 	 	 733 	 	 88 
  91 	 	 812 	 	 750 	 	 10 	 	 2608 	 	 2970 	 	 88 
  92 	 	 140 	 	 21 	 	 7 	 	 3046 	 	 3335 	 	 64 
  93 	 	 240 	 	 709 	 	 8 	 	 2201 	 	 2651 	 	 52 
  94 	 	 944 	 	 667 	 	 5 	 	 311 	 	 783 	 	 80 
  95 	 	 578 	 	 146 	 	 6 	 	 1341 	 	 1611 	 	 67 
  96 	 	 915 	 	 758 	 	 7 	 	 141 	 	 537 	 	 80 
  97 	 	 30 	 	 541 	 	 8 	 	 3484 	 	 3784 	 	 96 
  98 	 	 246 	 	 211 	 	 10 	 	 3619 	 	 3821 	 	 96 
  99 	 	 713 	 	 311 	 	 5 	 	 860 	 	 1325 	 	 62 
  100 	 	 73 	 	 816 	 	 5 	 	 3203 	 	 3459 	 	 75 
 